NAME : S-U-8-7.1762.tour
COMMENT : Length = 1762
COMMENT : Found by LKH [Keld Helsgaun] Thu May 17 23:18:24 2018
TYPE : TOUR
DIMENSION : 31
TOUR_SECTION
1
25
20
21
22
2
3
16
8
7
4
10
11
30
31
26
24
29
18
12
14
5
13
15
9
6
28
23
17
19
27
-1
EOF
